1 2 20
1 3 30
1 4 20
1 5 30
1 6 40       
2 3 30
2 4 40
2 5 10
2 6 50
3 4 20     
3 5 40
3 6 60
4 5 50
4 6 70
5 6 600
7 1 50
7 2 70
7 3 30
7 4 10
7 5 80
7 6 90
8 1 11
8 2 12
8 3 13
8 4 14
8 5 15
8 6 16
8 7 17